; benchmark generated from python API
(set-info :status unknown)
(declare-datatypes ((IntState 0)) (((Mk1 (val1 Int)) (Mk2 (val2 Int)))))
 (declare-fun c_main_~x~0 () Int)
(declare-fun c_main_~y~0 () Int)
(assert
 (let (($x37 (exists ((|v_main_#t~nondet0_5_st| IntState) (val!133 Int) )(let (($x112 (not (= |v_main_#t~nondet0_5_st| (Mk1 val!133)))))
 (and $x112 (= (+ (* 2 (val2 |v_main_#t~nondet0_5_st|)) 1) c_main_~x~0))))
 ))
 (let (($x25 (exists ((|v_main_#t~nondet1_5_st| IntState) (val!132 Int) )(let (($x112 (not (= |v_main_#t~nondet1_5_st| (Mk1 val!132)))))
 (and $x112 (= (+ (* 2 (val2 |v_main_#t~nondet1_5_st|)) 1) c_main_~y~0))))
 ))
 (let (($x85 (exists ((|v_main_#t~nondet1_6| Int) )(exists ((|v_main_#t~nondet1_7| Int) )(exists ((|v_main_#t~nondet1_5| Int) )(let ((?x175 (* 2 |v_main_#t~nondet1_5|)))
 (let ((?x123 (* 2 |v_main_#t~nondet1_7|)))
 (let ((?x100 (* 2 |v_main_#t~nondet1_6|)))
 (let ((?x200 (+ ?x100 ?x123 ?x175 1)))
 (= c_main_~y~0 ?x200))))))
 )
 )
 ))
 (let (($x97 (exists ((|v_main_#t~nondet0_7| Int) )(exists ((|v_main_#t~nondet0_5| Int) )(exists ((|v_main_#t~nondet0_6| Int) )(let ((?x175 (* 2 |v_main_#t~nondet0_6|)))
 (let ((?x123 (* 2 |v_main_#t~nondet0_5|)))
 (let ((?x100 (* 2 |v_main_#t~nondet0_7|)))
 (let ((?x200 (+ ?x100 ?x123 ?x175 1)))
 (= ?x200 c_main_~x~0))))))
 )
 )
 ))
 (and (and $x97 $x85) (not (and $x25 $x37))))))))
(check-sat)
